NAME : kroC100-C-3-1-a__wo_all_bias_same_priority_ls20__24341.tour
COMMENT : Length = 24341.000
COMMENT : Generated by evaluate_ctspd.py for wo_all_bias_same_priority_ls20
TYPE : TOUR
DIMENSION : 100
TOUR_SECTION
60
4
14
69
74
57
36
100
33
45
81
97
96
87
52
11
84
48
92
10
99
19
66
44
63
51
16
37
18
49
93
12
40
46
29
61
9
78
82
7
26
32
24
1
53
85
20
64
79
15
27
13
67
31
47
6
54
75
22
8
55
42
17
25
90
34
58
98
88
28
39
38
71
56
43
5
86
72
83
62
50
95
94
91
76
70
23
21
89
73
3
59
41
30
68
35
2
77
80
65
-1
EOF
